C1

VEHICLE					
vetexnum   	vecnum	cap			
3	2	2
					
CUSTOMER					
CUST NO. 	 XCOORD.   	YCOORD.       	READY TIME  	DUE DATE   	SERVICE   TIME
0	7	3	0	20	0
1	20	40	1	15	5
2	100	150	4	12	5
3	60	90	11	18	5


